========================================================== 
File name: C:\DEGR\assets\definitions\MSRCPSP_Gen\100_5_64_10_A.def
Creation date: Wed May 03 10:37:07 CEST 2023
Website: http://imopse.ii.pwr.edu.pl/ 
Reference: 
Myszkowski P. B., Skowronski M. E., Olech L., Oslizlo K., 
Hybrid Ant Colony Optimization in solving Multi-Skill Resource-Constrained Project Scheduling Problem, 
Soft Computing, DOI: DOI 10.1007/s00500-014-1455-x 
========================================================== 
General characteristics: 
Tasks: 100
Resources: 5
Precedence relations: 64
Number of skill types: 10
========================================================== 
ResourceID 	 Salary 	 Skills 
1	 	 	22.0	 	 Q6: 2 	  Q3: 3 	  Q9: 0 	  Q0: 3 	  Q8: 1 	  Q7: 0 	 
2	 	 	64.2	 	 Q7: 2 	  Q5: 2 	  Q1: 0 	  Q0: 2 	  Q2: 3 	  Q6: 0 	  Q8: 3 	  Q4: 2 	 
3	 	 	49.2	 	 Q1: 2 	  Q8: 1 	  Q5: 0 	  Q4: 2 	 
4	 	 	78.6	 	 Q1: 3 	  Q5: 1 	  Q3: 1 	  Q4: 1 	  Q8: 3 	  Q2: 3 	  Q9: 1 	  Q0: 1 	  Q6: 3 	 
5	 	 	32.0	 	 Q0: 2 	  Q4: 1 	  Q9: 2 	 
========================================================== 
TaskID 	 Duration 	 Skill 	 Predecessor IDs 
1	39	Q6:	2
2	35	Q3:	1
3	17	Q0:	2
4	10	Q0:	1
5	37	Q2:	3
6	13	Q8:	1
7	32	Q1:	0
8	17	Q9:	1
9	19	Q9:	1
10	17	Q4:	2
11	24	Q6:	2
12	27	Q7:	0	3
13	24	Q1:	2
14	21	Q9:	0
15	29	Q7:	2	3
16	15	Q6:	3
17	33	Q0:	3
18	38	Q6:	2
19	16	Q1:	2	13
20	38	Q1:	2	3
21	32	Q4:	1
22	28	Q1:	0
23	19	Q1:	3	21
24	14	Q5:	2
25	12	Q6:	3
26	30	Q5:	1
27	28	Q0:	3
28	12	Q6:	0
29	37	Q4:	1
30	17	Q9:	0
31	15	Q0:	1
32	21	Q9:	0
33	11	Q5:	1
34	13	Q6:	0
35	11	Q5:	1	29
36	39	Q7:	2
37	18	Q5:	2
38	17	Q9:	2	11	21	3
39	34	Q4:	2
40	23	Q2:	3	37
41	26	Q9:	0
42	10	Q1:	3	12
43	18	Q0:	3
44	9	Q9:	1
45	20	Q9:	1
46	23	Q6:	2	25	7
47	19	Q0:	2	37	20	23
48	31	Q1:	3
49	21	Q5:	0
50	19	Q9:	0	25
51	25	Q9:	2
52	34	Q9:	2
53	17	Q4:	2	43
54	39	Q4:	2	27	36
55	30	Q8:	3
56	34	Q1:	3
57	33	Q3:	1
58	26	Q5:	0
59	39	Q5:	2	21	23	43
60	16	Q5:	2
61	11	Q9:	2	38
62	15	Q6:	0
63	14	Q0:	2	52
64	23	Q4:	2	47
65	13	Q9:	2	63
66	37	Q9:	1	24
67	12	Q1:	2	53
68	17	Q7:	2
69	12	Q5:	2	56
70	38	Q7:	2	47
71	36	Q6:	0	53
72	29	Q3:	1
73	39	Q1:	3	64
74	10	Q6:	0	23	60	22
75	12	Q0:	3	12	9
76	19	Q7:	0	25
77	13	Q6:	3	61	55
78	18	Q3:	3	52
79	11	Q2:	3	70
80	38	Q5:	2	65
81	36	Q4:	2
82	20	Q8:	3	55	40
83	21	Q7:	0
84	11	Q8:	3	74
85	37	Q2:	3
86	15	Q6:	2
87	13	Q0:	2	86	25
88	21	Q5:	0
89	15	Q3:	3	58	32
90	18	Q0:	2	80
91	9	Q8:	1	67
92	20	Q0:	2	24	65	78
93	24	Q4:	1	11	70
94	29	Q5:	2	65
95	13	Q9:	1
96	20	Q6:	3
97	12	Q5:	0	90	50
98	17	Q0:	2
99	36	Q4:	2	29
100	27	Q3:	3	3	98
========================================================== 